words_easy_train/words_421_SAT.qaiger
aag 32 16 0 1 16
20
4
24
12
22
26
30
32
6
8
14
18
2
28
16
10
65
34 30 15
36 28 13
38 24 9
40 38 11
42 41 37
44 31 14
46 29 12
48 47 45
50 48 43
52 51 35
54 33 17
56 32 16
58 57 55
60 59 52
62 58 53
64 63 61
i0 1 x1[1]
i1 2 y1[1]
i2 1 x1[3]
i3 2 y1[5]
i4 1 x1[2]
i5 1 x1[4]
i6 1 x1[6]
i7 1 x1[7]
i8 2 y1[2]
i9 2 y1[3]
i10 2 y1[6]
i11 1 x1[0]
i12 2 y1[0]
i13 1 x1[5]
i14 2 y1[7]
i15 2 y1[4]
o0 bv[0]
c
simplified
  <=
    and
      1 x1
      invert
        23
    2 y1
