words_easy_train/words_421_SAT.qaiger.qdimacs
p cnf 32 49
a 9 10 11 12 13 14 15 16 0
e 1 2 3 4 5 6 7 8 17 18 19 20 21 22 23 24 25 26 27 28 29 30 31 32 0
-15 7 17 0
15 -17 0
-7 -17 0
-14 6 18 0
14 -18 0
-6 -18 0
-12 4 19 0
12 -19 0
-4 -19 0
-19 5 20 0
19 -20 0
-5 -20 0
20 18 21 0
-20 -21 0
-18 -21 0
15 -7 22 0
-15 -22 0
7 -22 0
14 -6 23 0
-14 -23 0
6 -23 0
23 22 24 0
-23 -24 0
-22 -24 0
-24 21 25 0
24 -25 0
-21 -25 0
25 17 26 0
-25 -26 0
-17 -26 0
16 8 27 0
-16 -27 0
-8 -27 0
-16 -8 28 0
16 -28 0
8 -28 0
28 27 29 0
-28 -29 0
-27 -29 0
29 -26 30 0
-29 -30 0
26 -30 0
-29 26 31 0
29 -31 0
-26 -31 0
31 30 32 0
-31 -32 0
-30 -32 0
-32 0
